CARROOOOOOOOOOCAAAAAAAAAAAAAA
Tried aggregator 1 time.
MIP Presolve eliminated 0 rows and 1 columns.
Reduced MIP has 200815 rows, 125 columns, and 803260 nonzeros.
Reduced MIP has 125 binaries, 0 generals, 0 SOSs, and 0 indicators.
Probing time =    0.01 sec.
Tried aggregator 1 time.
Presolve time =    0.51 sec.
Found feasible solution after 0.57 sec.  Objective = 125.0000
Probing time =    0.01 sec.
MIP emphasis: balance optimality and feasibility.
MIP search method: dynamic search.
Parallel mode: none, using 1 thread.
Root relaxation solution time =    1.37 sec.

        Nodes                                         Cuts/
   Node  Left     Objective  IInf  Best Integer    Best Bound    ItCnt     Gap

*     0+    0                          125.0000                   1686     --- 
      0     0       29.3333    70      125.0000       29.3333     1686   76.53%
*     0+    0                           30.0000       29.3333     1686    2.22%
      0     0        cutoff             30.0000       29.3333     1686    2.22%
Elapsed real time =   2.87 sec. (tree size =  0.00 MB, solutions = 2)

Root node processing (before b&c):
  Real time             =    2.36
Sequential b&c:
  Real time             =    0.00
                          -------
Total (root+branch&cut) =    2.36 sec.
Nodes: 0
OBJ: 30
1 1 0 1 1 1 0 0 0 0 1 0 0 1 1 0 1 1 1 0 1 1 1 1 1 1 1 1 1 0 0 1 1 1 1 1 1 1 0 1 0 1 1 1 1 1 1 1 1 0 1 1 1 1 1 0 1 1 1 1 1 0 1 1 1 1 1 1 1 1 1 1 1 1 1 1 1 1 1 1 1 1 1 1 1 1 1 0 0 1 0 1 0 1 1 0 1 1 1 1 1 1 1 1 0 1 1 1 0 1 1 0 0 0 1 0 1 1 1 0 1 0 1 1 0 
